nNurses = 94;
nHours = 36;
minHours = 9;
maxHours = 11;
maxConsec = 8;
maxPresence = 11;
demand = [11, 16, 16, 17, 18, 17, 21, 17, 20, 21, 22, 22, 26, 22, 17, 18, 23, 27, 29, 29, 27, 24, 20, 23, 27, 22, 20, 22, 23, 21, 20, 25, 24, 20, 15, 13];
